c SAT Generator for power-law distributed variable frequencies
c -g u -v 20 -c 91 -k 3 -p 2.750000 -b 3.200000 -f /home/schmidt/Devel/ni-kop-sat/data/ensemble/ruf20-91/ruf20-91-691 -u 1 -U 1 -s 1709174403
p cnf 20 91
1 6 -17 0
-2 -7 17 0
3 4 -19 0
9 -11 -20 0
1 16 17 0
-8 -15 19 0
-5 -7 8 0
2 7 -18 0
-8 13 18 0
-2 -6 -20 0
-11 12 20 0
-3 -14 20 0
-3 -8 -16 0
-8 9 19 0
-3 9 -16 0
3 -11 17 0
-3 15 16 0
2 3 -19 0
-1 -13 -20 0
7 11 -20 0
7 17 -18 0
10 -15 -20 0
-6 7 16 0
-3 12 -19 0
-10 -13 17 0
9 17 19 0
-5 -14 20 0
5 9 -16 0
-8 -13 -20 0
4 14 -16 0
9 -15 -19 0
-1 -9 17 0
6 13 17 0
-4 7 -15 0
-1 -8 -18 0
-14 -18 -19 0
-4 7 14 0
-5 -7 12 0
4 -6 7 0
-7 -15 18 0
-1 -7 12 0
-8 10 12 0
-4 -5 -16 0
9 -14 19 0
-1 5 -16 0
-7 -9 17 0
7 -10 -15 0
-6 -13 16 0
10 11 13 0
-5 12 13 0
-9 -16 19 0
8 10 15 0
-2 4 5 0
-12 -14 -16 0
5 11 17 0
16 -18 -19 0
2 -10 15 0
1 17 20 0
7 -17 20 0
1 3 10 0
1 3 9 0
-3 16 -17 0
4 10 -14 0
6 -12 -19 0
5 7 16 0
2 -4 -6 0
11 12 -19 0
-3 15 -19 0
-1 -2 9 0
-11 12 17 0
5 7 -16 0
-5 -11 -16 0
-2 6 -7 0
4 -12 -18 0
5 14 -20 0
2 -17 19 0
-6 10 -13 0
-4 -9 15 0
1 19 20 0
14 -19 20 0
-2 -9 -20 0
-3 -11 18 0
4 11 -19 0
-12 14 -17 0
-1 14 15 0
-6 -8 20 0
10 12 17 0
-9 -16 20 0
1 -7 19 0
1 -14 19 0
-2 -14 -19 0
